\ SCIP STATISTICS
\   Problem name     : SetCover-100-200
\   Variables        : 200 (200 binary, 0 integer, 0 implicit integer, 0 continuous)
\   Constraints      : 100
Minimize
 Obj: +28 x0 +99 x1 +26 x2 +51 x3 +96 x4 +74 x5 +48 x6 +51 x7 +50 x8 +83 x9 +42 x10 +20 x11 +46 x12 +81 x13
      +38 x14 +20 x15 +32 x16 +8 x17 +7 x18 +69 x19 +79 x20 +5 x21 +39 x22 +36 x23 +88 x24 +24 x25 +43 x26
      +6 x27 +21 x28 +20 x29 +44 x30 +57 x31 +65 x32 +26 x33 +18 x34 +18 x35 +81 x36 +23 x37 +91 x38 +84 x39
      +71 x40 +47 x41 +12 x42 +14 x43 +10 x44 +7 x45 +25 x46 +95 x47 +74 x48 +39 x49 +51 x50 +49 x51 +60 x52
      +78 x53 +78 x54 +43 x55 +41 x56 +98 x57 +13 x58 +15 x59 +78 x60 +93 x61 +86 x62 +70 x63 +86 x64
      +59 x65 +60 x66 +70 x67 +11 x68 +38 x69 +18 x70 +14 x71 +94 x72 +81 x73 +32 x74 +20 x75 +2 x76 +91 x77
      +30 x78 +38 x79 +34 x80 +36 x81 +94 x82 +47 x83 +6 x84 +96 x85 +3 x86 +54 x87 +13 x88 +7 x89 +29 x90
      +12 x91 +46 x92 +59 x93 +5 x94 +66 x95 +10 x96 +35 x97 +12 x98 +31 x99 +51 x100 +52 x101 +73 x102
      +60 x103 +94 x104 +97 x105 +27 x106 +25 x107 +38 x108 +92 x109 +100 x110 +65 x111 +21 x112 +53 x113
      +34 x114 +77 x115 +24 x116 +44 x117 +76 x118 +34 x119 +96 x120 +29 x121 +52 x122 +9 x123 +33 x124
      +15 x125 +58 x126 +71 x127 +72 x128 +51 x129 +77 x130 +59 x131 +87 x132 +85 x133 +33 x134 +86 x135
      +77 x136 +91 x137 +37 x138 +88 x139 +89 x140 +22 x141 +65 x142 +72 x143 +18 x144 +81 x145 +2 x146
      +56 x147 +65 x148 +87 x149 +83 x150 +54 x151 +69 x152 +48 x153 +37 x154 +54 x155 +50 x156 +86 x157
      +80 x158 +93 x159 +77 x160 +43 x161 +44 x162 +85 x163 +2 x164 +11 x165 +73 x166 +25 x167 +57 x168
      +60 x169 +27 x170 +44 x171 +95 x172 +14 x173 +99 x174 +23 x175 +81 x176 +28 x177 +26 x178 +35 x179
      +45 x180 +2 x181 +86 x182 +95 x183 +78 x184 +7 x185 +30 x186 +47 x187 +79 x188 +21 x189 +60 x190
      +11 x191 +31 x192 +36 x193 +64 x194 +26 x195 +65 x196 +65 x197 +77 x198 +85 x199
Subject to
 c0: +1 x3 +1 x7 +1 x11 +1 x12 +1 x21 +1 x23 +1 x24 +1 x25 +1 x30 +1 x51 +1 x54 +1 x56 +1 x61 +1 x67 +1 x69
  +1 x73 +1 x75 +1 x76 +1 x77 +1 x78 +1 x83 +1 x91 +1 x103 +1 x109 +1 x115 +1 x117 +1 x126 +1 x138 +1 x142
  +1 x147 +1 x148 +1 x151 +1 x153 +1 x159 +1 x163 +1 x165 +1 x178 +1 x193 >= +1
 c1: +1 x0 +1 x6 +1 x21 +1 x24 +1 x35 +1 x36 +1 x38 +1 x45 +1 x50 +1 x55 +1 x57 +1 x61 +1 x62 +1 x63 +1 x68
  +1 x70 +1 x72 +1 x81 +1 x87 +1 x99 +1 x104 +1 x112 +1 x115 +1 x121 +1 x122 +1 x124 +1 x139 +1 x141 +1 x146
  +1 x149 +1 x158 +1 x165 +1 x179 +1 x182 +1 x185 +1 x194 +1 x198 +1 x199 >= +1
 c2: +1 x0 +1 x6 +1 x14 +1 x16 +1 x23 +1 x30 +1 x40 +1 x41 +1 x42 +1 x48 +1 x49 +1 x63 +1 x64 +1 x67 +1 x68
  +1 x70 +1 x72 +1 x78 +1 x85 +1 x87 +1 x90 +1 x92 +1 x95 +1 x96 +1 x98 +1 x101 +1 x104 +1 x105 +1 x118
  +1 x122 +1 x124 +1 x125 +1 x131 +1 x135 +1 x139 +1 x140 +1 x149 +1 x162 +1 x167 +1 x170 +1 x171 +1 x173
  +1 x177 +1 x183 +1 x184 +1 x195 +1 x199 >= +1
 c3: +1 x1 +1 x11 +1 x21 +1 x22 +1 x23 +1 x25 +1 x28 +1 x29 +1 x38 +1 x39 +1 x40 +1 x46 +1 x49 +1 x53
  +1 x54 +1 x55 +1 x67 +1 x68 +1 x90 +1 x92 +1 x93 +1 x95 +1 x101 +1 x105 +1 x113 +1 x116 +1 x119 +1 x131
  +1 x135 +1 x141 +1 x145 +1 x147 +1 x165 +1 x166 +1 x168 +1 x190 +1 x191 >= +1
 c4: +1 x0 +1 x6 +1 x8 +1 x15 +1 x20 +1 x21 +1 x25 +1 x31 +1 x40 +1 x41 +1 x43 +1 x57 +1 x61 +1 x67 +1 x71
  +1 x72 +1 x74 +1 x75 +1 x79 +1 x81 +1 x89 +1 x92 +1 x96 +1 x101 +1 x106 +1 x109 +1 x113 +1 x115 +1 x121
  +1 x127 +1 x129 +1 x137 +1 x139 +1 x140 +1 x145 +1 x153 +1 x156 +1 x158 +1 x167 +1 x171 +1 x174 +1 x179
  +1 x180 +1 x182 +1 x190 +1 x198 >= +1
 c5: +1 x4 +1 x5 +1 x9 +1 x12 +1 x30 +1 x35 +1 x43 +1 x51 +1 x57 +1 x64 +1 x65 +1 x72 +1 x73 +1 x102 +1 x110
  +1 x112 +1 x134 +1 x136 +1 x140 +1 x152 +1 x159 +1 x168 +1 x171 +1 x176 +1 x187 +1 x189 +1 x193 +1 x195
  +1 x198 >= +1
 c6: +1 x0 +1 x5 +1 x6 +1 x9 +1 x10 +1 x13 +1 x17 +1 x18 +1 x20 +1 x26 +1 x28 +1 x29 +1 x34 +1 x41 +1 x43
  +1 x47 +1 x52 +1 x57 +1 x60 +1 x64 +1 x65 +1 x71 +1 x74 +1 x75 +1 x77 +1 x83 +1 x93 +1 x97 +1 x100 +1 x102
  +1 x112 +1 x115 +1 x118 +1 x122 +1 x126 +1 x130 +1 x139 +1 x142 +1 x157 +1 x160 +1 x163 +1 x165 +1 x172
  +1 x174 +1 x175 +1 x184 +1 x194 +1 x197 +1 x199 >= +1
 c7: +1 x2 +1 x9 +1 x10 +1 x11 +1 x13 +1 x16 +1 x17 +1 x20 +1 x26 +1 x27 +1 x30 +1 x34 +1 x52 +1 x56 +1 x59
  +1 x61 +1 x67 +1 x69 +1 x71 +1 x74 +1 x89 +1 x90 +1 x95 +1 x96 +1 x103 +1 x104 +1 x109 +1 x110 +1 x111
  +1 x114 +1 x118 +1 x122 +1 x123 +1 x125 +1 x128 +1 x133 +1 x137 +1 x156 +1 x170 +1 x171 +1 x183 +1 x189
  +1 x190 +1 x191 +1 x196 >= +1
 c8: +1 x0 +1 x5 +1 x14 +1 x20 +1 x30 +1 x32 +1 x37 +1 x41 +1 x43 +1 x50 +1 x51 +1 x56 +1 x59 +1 x62 +1 x65
  +1 x67 +1 x70 +1 x74 +1 x78 +1 x82 +1 x83 +1 x88 +1 x91 +1 x104 +1 x106 +1 x107 +1 x111 +1 x113 +1 x116
  +1 x118 +1 x119 +1 x123 +1 x128 +1 x141 +1 x143 +1 x155 +1 x158 +1 x159 +1 x172 +1 x173 +1 x186 +1 x197
  +1 x199 >= +1
 c9: +1 x0 +1 x20 +1 x27 +1 x37 +1 x38 +1 x53 +1 x59 +1 x62 +1 x73 +1 x76 +1 x88 +1 x94 +1 x96 +1 x97
  +1 x100 +1 x101 +1 x106 +1 x107 +1 x112 +1 x115 +1 x118 +1 x119 +1 x123 +1 x125 +1 x140 +1 x142 +1 x143
  +1 x147 +1 x166 +1 x176 +1 x178 +1 x180 +1 x188 +1 x189 +1 x190 +1 x193 +1 x196 +1 x198 >= +1
 c10: +1 x3 +1 x5 +1 x7 +1 x11 +1 x20 +1 x24 +1 x27 +1 x29 +1 x31 +1 x35 +1 x41 +1 x51 +1 x52 +1 x53 +1 x55
  +1 x56 +1 x57 +1 x70 +1 x80 +1 x83 +1 x95 +1 x108 +1 x110 +1 x113 +1 x115 +1 x125 +1 x128 +1 x137 +1 x148
  +1 x184 +1 x186 +1 x189 +1 x190 >= +1
 c11: +1 x1 +1 x4 +1 x5 +1 x8 +1 x11 +1 x18 +1 x19 +1 x21 +1 x32 +1 x43 +1 x48 +1 x50 +1 x53 +1 x54 +1 x55
  +1 x58 +1 x62 +1 x63 +1 x65 +1 x68 +1 x74 +1 x80 +1 x81 +1 x89 +1 x92 +1 x95 +1 x102 +1 x103 +1 x107
  +1 x108 +1 x109 +1 x123 +1 x124 +1 x128 +1 x130 +1 x138 +1 x148 +1 x150 +1 x169 +1 x170 +1 x180 +1 x184
  >= +1
 c12: +1 x4 +1 x6 +1 x8 +1 x16 +1 x36 +1 x39 +1 x42 +1 x46 +1 x48 +1 x65 +1 x67 +1 x70 +1 x77 +1 x79 +1 x80
  +1 x83 +1 x88 +1 x89 +1 x90 +1 x91 +1 x94 +1 x95 +1 x99 +1 x115 +1 x117 +1 x124 +1 x127 +1 x132 +1 x147
  +1 x152 +1 x155 +1 x158 +1 x165 +1 x166 +1 x168 +1 x169 +1 x174 +1 x177 +1 x179 +1 x191 +1 x197 >= +1
 c13: +1 x0 +1 x12 +1 x13 +1 x14 +1 x24 +1 x25 +1 x29 +1 x31 +1 x33 +1 x34 +1 x45 +1 x49 +1 x57 +1 x61
  +1 x63 +1 x74 +1 x76 +1 x78 +1 x81 +1 x85 +1 x88 +1 x94 +1 x95 +1 x99 +1 x104 +1 x108 +1 x109 +1 x110
  +1 x114 +1 x120 +1 x121 +1 x123 +1 x135 +1 x136 +1 x140 +1 x141 +1 x143 +1 x145 +1 x149 +1 x154 +1 x160
  +1 x164 +1 x177 +1 x179 +1 x181 +1 x182 +1 x186 +1 x187 +1 x189 +1 x190 +1 x199 >= +1
 c14: +1 x3 +1 x15 +1 x18 +1 x19 +1 x20 +1 x27 +1 x28 +1 x32 +1 x33 +1 x35 +1 x36 +1 x43 +1 x51 +1 x61
  +1 x62 +1 x64 +1 x66 +1 x69 +1 x73 +1 x78 +1 x79 +1 x88 +1 x89 +1 x90 +1 x92 +1 x94 +1 x95 +1 x96 +1 x123
  +1 x126 +1 x139 +1 x140 +1 x146 +1 x150 +1 x153 +1 x155 +1 x159 +1 x168 +1 x181 +1 x185 +1 x186 +1 x187
  +1 x193 +1 x196 >= +1
 c15: +1 x4 +1 x5 +1 x17 +1 x19 +1 x22 +1 x27 +1 x37 +1 x41 +1 x42 +1 x43 +1 x45 +1 x48 +1 x54 +1 x55
  +1 x58 +1 x62 +1 x85 +1 x86 +1 x91 +1 x92 +1 x97 +1 x98 +1 x106 +1 x122 +1 x130 +1 x132 +1 x134 +1 x142
  +1 x151 +1 x154 +1 x162 +1 x173 +1 x177 +1 x182 +1 x186 +1 x187 >= +1
 c16: +1 x4 +1 x5 +1 x7 +1 x14 +1 x20 +1 x24 +1 x27 +1 x33 +1 x35 +1 x39 +1 x42 +1 x47 +1 x50 +1 x55 +1 x58
  +1 x66 +1 x68 +1 x69 +1 x72 +1 x86 +1 x90 +1 x93 +1 x99 +1 x102 +1 x103 +1 x104 +1 x106 +1 x113 +1 x115
  +1 x124 +1 x130 +1 x162 +1 x167 +1 x175 +1 x176 +1 x183 +1 x185 +1 x190 +1 x193 +1 x198 >= +1
 c17: +1 x1 +1 x5 +1 x11 +1 x14 +1 x20 +1 x22 +1 x29 +1 x31 +1 x38 +1 x43 +1 x46 +1 x54 +1 x58 +1 x61
  +1 x64 +1 x67 +1 x72 +1 x74 +1 x88 +1 x92 +1 x95 +1 x101 +1 x108 +1 x109 +1 x113 +1 x118 +1 x124 +1 x130
  +1 x131 +1 x137 +1 x148 +1 x153 +1 x158 +1 x159 +1 x161 +1 x164 +1 x168 +1 x173 +1 x175 +1 x181 +1 x182
  +1 x184 +1 x185 +1 x186 +1 x190 +1 x192 +1 x197 +1 x198 +1 x199 >= +1
 c18: +1 x4 +1 x10 +1 x12 +1 x14 +1 x19 +1 x20 +1 x24 +1 x37 +1 x42 +1 x54 +1 x56 +1 x57 +1 x63 +1 x66
  +1 x71 +1 x75 +1 x78 +1 x82 +1 x85 +1 x87 +1 x92 +1 x94 +1 x95 +1 x102 +1 x105 +1 x113 +1 x114 +1 x120
  +1 x127 +1 x133 +1 x136 +1 x145 +1 x146 +1 x147 +1 x148 +1 x149 +1 x151 +1 x157 +1 x178 +1 x191 +1 x199
  >= +1
 c19: +1 x2 +1 x5 +1 x7 +1 x9 +1 x15 +1 x16 +1 x17 +1 x34 +1 x36 +1 x38 +1 x41 +1 x42 +1 x62 +1 x64 +1 x79
  +1 x81 +1 x83 +1 x84 +1 x95 +1 x97 +1 x104 +1 x106 +1 x110 +1 x115 +1 x117 +1 x125 +1 x127 +1 x153 +1 x157
  +1 x170 +1 x173 +1 x174 +1 x176 +1 x180 +1 x183 +1 x184 +1 x193 +1 x195 +1 x198 +1 x199 >= +1
 c20: +1 x1 +1 x5 +1 x7 +1 x10 +1 x14 +1 x17 +1 x19 +1 x23 +1 x25 +1 x32 +1 x33 +1 x36 +1 x41 +1 x44 +1 x47
  +1 x52 +1 x64 +1 x78 +1 x79 +1 x86 +1 x88 +1 x89 +1 x90 +1 x91 +1 x94 +1 x95 +1 x98 +1 x110 +1 x121
  +1 x122 +1 x126 +1 x146 +1 x148 +1 x150 +1 x156 +1 x157 +1 x170 +1 x172 +1 x174 +1 x180 +1 x181 +1 x182
  +1 x184 +1 x193 +1 x194 +1 x198 >= +1
 c21: +1 x4 +1 x5 +1 x6 +1 x9 +1 x18 +1 x22 +1 x37 +1 x38 +1 x40 +1 x42 +1 x43 +1 x44 +1 x45 +1 x47 +1 x56
  +1 x67 +1 x78 +1 x80 +1 x86 +1 x100 +1 x114 +1 x115 +1 x118 +1 x120 +1 x127 +1 x133 +1 x136 +1 x139
  +1 x144 +1 x145 +1 x147 +1 x154 +1 x160 +1 x164 +1 x170 +1 x171 +1 x185 +1 x188 +1 x194 >= +1
 c22: +1 x0 +1 x10 +1 x11 +1 x16 +1 x20 +1 x34 +1 x35 +1 x50 +1 x51 +1 x61 +1 x63 +1 x66 +1 x71 +1 x76
  +1 x77 +1 x80 +1 x86 +1 x96 +1 x97 +1 x102 +1 x109 +1 x113 +1 x119 +1 x122 +1 x127 +1 x131 +1 x132 +1 x137
  +1 x138 +1 x139 +1 x142 +1 x144 +1 x145 +1 x149 +1 x151 +1 x155 +1 x157 +1 x161 +1 x162 +1 x163 +1 x165
  +1 x169 +1 x170 +1 x172 +1 x190 +1 x191 +1 x196 +1 x199 >= +1
 c23: +1 x3 +1 x7 +1 x17 +1 x26 +1 x27 +1 x42 +1 x43 +1 x44 +1 x47 +1 x51 +1 x53 +1 x59 +1 x61 +1 x64
  +1 x80 +1 x81 +1 x87 +1 x90 +1 x95 +1 x96 +1 x97 +1 x111 +1 x113 +1 x115 +1 x123 +1 x124 +1 x126 +1 x134
  +1 x163 +1 x167 +1 x170 +1 x171 +1 x179 +1 x181 +1 x186 +1 x187 +1 x190 +1 x191 +1 x193 +1 x198 +1 x199
  >= +1
 c24: +1 x0 +1 x9 +1 x16 +1 x18 +1 x19 +1 x33 +1 x34 +1 x64 +1 x65 +1 x66 +1 x79 +1 x81 +1 x88 +1 x91
  +1 x97 +1 x104 +1 x106 +1 x113 +1 x124 +1 x126 +1 x127 +1 x135 +1 x137 +1 x142 +1 x147 +1 x149 +1 x150
  +1 x152 +1 x156 +1 x161 +1 x167 +1 x168 +1 x172 +1 x173 +1 x177 +1 x179 +1 x180 +1 x183 +1 x185 +1 x188
  +1 x191 +1 x192 >= +1
 c25: +1 x2 +1 x6 +1 x14 +1 x19 +1 x33 +1 x36 +1 x48 +1 x50 +1 x51 +1 x58 +1 x61 +1 x69 +1 x71 +1 x73
  +1 x78 +1 x84 +1 x86 +1 x87 +1 x88 +1 x96 +1 x101 +1 x105 +1 x107 +1 x113 +1 x122 +1 x123 +1 x126 +1 x129
  +1 x131 +1 x133 +1 x134 +1 x135 +1 x147 +1 x157 +1 x160 +1 x161 +1 x164 +1 x166 +1 x167 +1 x170 +1 x173
  +1 x175 +1 x187 +1 x198 >= +1
 c26: +1 x3 +1 x7 +1 x14 +1 x15 +1 x17 +1 x20 +1 x23 +1 x26 +1 x29 +1 x39 +1 x44 +1 x61 +1 x64 +1 x66
  +1 x78 +1 x86 +1 x88 +1 x89 +1 x93 +1 x98 +1 x105 +1 x108 +1 x117 +1 x132 +1 x134 +1 x139 +1 x144 +1 x145
  +1 x147 +1 x148 +1 x157 +1 x163 +1 x167 +1 x169 +1 x170 +1 x174 +1 x176 +1 x178 +1 x182 +1 x183 +1 x188
  +1 x189 >= +1
 c27: +1 x0 +1 x4 +1 x8 +1 x13 +1 x15 +1 x17 +1 x19 +1 x23 +1 x29 +1 x33 +1 x51 +1 x53 +1 x58 +1 x60 +1 x64
  +1 x65 +1 x71 +1 x72 +1 x74 +1 x76 +1 x79 +1 x81 +1 x83 +1 x84 +1 x94 +1 x105 +1 x109 +1 x115 +1 x117
  +1 x119 +1 x120 +1 x121 +1 x135 +1 x137 +1 x138 +1 x139 +1 x140 +1 x148 +1 x149 +1 x150 +1 x160 +1 x161
  +1 x167 +1 x171 +1 x172 +1 x173 +1 x177 +1 x184 +1 x191 >= +1
 c28: +1 x3 +1 x6 +1 x7 +1 x10 +1 x14 +1 x15 +1 x75 +1 x86 +1 x87 +1 x93 +1 x97 +1 x101 +1 x111 +1 x114
  +1 x116 +1 x118 +1 x126 +1 x145 +1 x148 +1 x153 +1 x160 +1 x164 +1 x174 +1 x176 +1 x188 +1 x192 >= +1
 c29: +1 x0 +1 x8 +1 x13 +1 x14 +1 x19 +1 x23 +1 x25 +1 x29 +1 x31 +1 x32 +1 x33 +1 x37 +1 x41 +1 x49
  +1 x52 +1 x53 +1 x60 +1 x66 +1 x74 +1 x77 +1 x81 +1 x82 +1 x83 +1 x84 +1 x90 +1 x93 +1 x95 +1 x99 +1 x101
  +1 x102 +1 x103 +1 x108 +1 x109 +1 x114 +1 x115 +1 x119 +1 x127 +1 x134 +1 x151 +1 x153 +1 x154 +1 x161
  +1 x178 +1 x181 +1 x197 >= +1
 c30: +1 x0 +1 x8 +1 x9 +1 x15 +1 x24 +1 x25 +1 x31 +1 x32 +1 x38 +1 x40 +1 x44 +1 x46 +1 x48 +1 x51 +1 x53
  +1 x54 +1 x55 +1 x56 +1 x58 +1 x59 +1 x60 +1 x72 +1 x75 +1 x78 +1 x83 +1 x87 +1 x96 +1 x97 +1 x125 +1 x144
  +1 x147 +1 x148 +1 x150 +1 x151 +1 x157 +1 x168 +1 x173 +1 x174 +1 x181 +1 x193 >= +1
 c31: +1 x2 +1 x7 +1 x12 +1 x15 +1 x17 +1 x24 +1 x30 +1 x40 +1 x42 +1 x45 +1 x57 +1 x59 +1 x63 +1 x69
  +1 x75 +1 x76 +1 x77 +1 x91 +1 x94 +1 x104 +1 x108 +1 x112 +1 x125 +1 x132 +1 x137 +1 x141 +1 x142 +1 x151
  +1 x161 +1 x165 +1 x166 +1 x178 +1 x180 +1 x183 +1 x185 +1 x189 +1 x193 >= +1
 c32: +1 x0 +1 x4 +1 x17 +1 x25 +1 x31 +1 x33 +1 x38 +1 x41 +1 x45 +1 x48 +1 x53 +1 x60 +1 x62 +1 x64
  +1 x66 +1 x68 +1 x73 +1 x79 +1 x85 +1 x88 +1 x97 +1 x100 +1 x107 +1 x115 +1 x117 +1 x118 +1 x119 +1 x124
  +1 x131 +1 x138 +1 x143 +1 x151 +1 x157 +1 x160 +1 x161 +1 x162 +1 x163 +1 x169 +1 x180 +1 x184 +1 x189
  +1 x193 +1 x198 >= +1
 c33: +1 x2 +1 x4 +1 x5 +1 x7 +1 x9 +1 x19 +1 x21 +1 x27 +1 x28 +1 x29 +1 x33 +1 x35 +1 x40 +1 x44 +1 x62
  +1 x67 +1 x69 +1 x70 +1 x85 +1 x94 +1 x96 +1 x99 +1 x110 +1 x112 +1 x116 +1 x119 +1 x125 +1 x130 +1 x133
  +1 x134 +1 x137 +1 x149 +1 x155 +1 x156 +1 x160 +1 x172 +1 x174 +1 x175 +1 x189 +1 x192 >= +1
 c34: +1 x1 +1 x5 +1 x10 +1 x14 +1 x16 +1 x21 +1 x24 +1 x27 +1 x38 +1 x40 +1 x49 +1 x51 +1 x54 +1 x60
  +1 x65 +1 x66 +1 x67 +1 x73 +1 x74 +1 x81 +1 x97 +1 x99 +1 x104 +1 x108 +1 x109 +1 x115 +1 x121 +1 x122
  +1 x133 +1 x134 +1 x146 +1 x147 +1 x152 +1 x159 +1 x161 +1 x170 +1 x171 +1 x175 +1 x185 +1 x190 >= +1
 c35: +1 x1 +1 x11 +1 x20 +1 x23 +1 x27 +1 x32 +1 x36 +1 x40 +1 x44 +1 x49 +1 x64 +1 x66 +1 x67 +1 x68
  +1 x76 +1 x80 +1 x94 +1 x102 +1 x106 +1 x109 +1 x119 +1 x124 +1 x133 +1 x140 +1 x149 +1 x152 +1 x154
  +1 x160 +1 x164 +1 x169 +1 x173 +1 x177 +1 x182 +1 x185 +1 x193 +1 x198 +1 x199 >= +1
 c36: +1 x3 +1 x17 +1 x19 +1 x24 +1 x28 +1 x31 +1 x32 +1 x35 +1 x36 +1 x46 +1 x64 +1 x72 +1 x73 +1 x74
  +1 x76 +1 x90 +1 x91 +1 x92 +1 x93 +1 x97 +1 x102 +1 x106 +1 x116 +1 x125 +1 x128 +1 x142 +1 x143 +1 x144
  +1 x147 +1 x155 +1 x158 +1 x160 +1 x174 +1 x181 +1 x182 +1 x185 +1 x187 +1 x192 +1 x197 >= +1
 c37: +1 x1 +1 x8 +1 x10 +1 x11 +1 x13 +1 x17 +1 x18 +1 x22 +1 x32 +1 x43 +1 x44 +1 x49 +1 x55 +1 x61
  +1 x65 +1 x67 +1 x77 +1 x83 +1 x93 +1 x96 +1 x102 +1 x108 +1 x112 +1 x115 +1 x123 +1 x126 +1 x134 +1 x143
  +1 x144 +1 x148 +1 x150 +1 x152 +1 x153 +1 x155 +1 x157 +1 x168 +1 x174 +1 x198 >= +1
 c38: +1 x0 +1 x5 +1 x8 +1 x9 +1 x10 +1 x16 +1 x19 +1 x20 +1 x21 +1 x24 +1 x27 +1 x32 +1 x61 +1 x68 +1 x80
  +1 x85 +1 x86 +1 x95 +1 x96 +1 x97 +1 x107 +1 x108 +1 x114 +1 x116 +1 x141 +1 x149 +1 x153 +1 x161 +1 x162
  +1 x177 +1 x179 +1 x185 +1 x192 +1 x193 +1 x198 >= +1
 c39: +1 x2 +1 x5 +1 x7 +1 x13 +1 x18 +1 x19 +1 x20 +1 x36 +1 x46 +1 x49 +1 x50 +1 x54 +1 x56 +1 x64 +1 x78
  +1 x87 +1 x89 +1 x92 +1 x94 +1 x96 +1 x99 +1 x104 +1 x109 +1 x112 +1 x113 +1 x116 +1 x118 +1 x127 +1 x129
  +1 x132 +1 x136 +1 x140 +1 x146 +1 x160 +1 x162 +1 x168 +1 x174 +1 x177 +1 x178 +1 x181 +1 x188 +1 x189
  +1 x196 >= +1
 c40: +1 x0 +1 x7 +1 x9 +1 x10 +1 x15 +1 x17 +1 x19 +1 x20 +1 x25 +1 x27 +1 x29 +1 x39 +1 x53 +1 x61 +1 x72
  +1 x82 +1 x102 +1 x108 +1 x112 +1 x113 +1 x119 +1 x121 +1 x132 +1 x141 +1 x142 +1 x145 +1 x148 +1 x149
  +1 x152 +1 x158 +1 x181 +1 x185 +1 x186 +1 x188 >= +1
 c41: +1 x0 +1 x14 +1 x16 +1 x18 +1 x20 +1 x21 +1 x25 +1 x27 +1 x29 +1 x35 +1 x38 +1 x39 +1 x40 +1 x49
  +1 x50 +1 x52 +1 x53 +1 x59 +1 x63 +1 x75 +1 x83 +1 x99 +1 x100 +1 x102 +1 x107 +1 x108 +1 x114 +1 x116
  +1 x122 +1 x123 +1 x127 +1 x129 +1 x133 +1 x134 +1 x135 +1 x141 +1 x142 +1 x146 +1 x147 +1 x148 +1 x154
  +1 x156 +1 x157 +1 x158 +1 x168 +1 x169 +1 x174 +1 x182 +1 x184 +1 x185 +1 x189 +1 x195 >= +1
 c42: +1 x1 +1 x12 +1 x22 +1 x30 +1 x32 +1 x35 +1 x37 +1 x66 +1 x69 +1 x76 +1 x78 +1 x79 +1 x84 +1 x88
  +1 x89 +1 x92 +1 x98 +1 x103 +1 x115 +1 x116 +1 x117 +1 x129 +1 x130 +1 x133 +1 x134 +1 x139 +1 x144
  +1 x150 +1 x153 +1 x157 +1 x160 +1 x162 +1 x163 +1 x166 +1 x167 +1 x168 +1 x193 +1 x198 >= +1
 c43: +1 x2 +1 x4 +1 x12 +1 x41 +1 x45 +1 x50 +1 x55 +1 x57 +1 x60 +1 x71 +1 x78 +1 x80 +1 x81 +1 x86
  +1 x91 +1 x93 +1 x98 +1 x111 +1 x125 +1 x136 +1 x139 +1 x145 +1 x151 +1 x152 +1 x154 +1 x158 +1 x161
  +1 x168 +1 x176 +1 x180 +1 x182 +1 x185 +1 x186 +1 x187 +1 x188 +1 x189 +1 x197 >= +1
 c44: +1 x4 +1 x5 +1 x14 +1 x20 +1 x26 +1 x29 +1 x35 +1 x41 +1 x48 +1 x69 +1 x74 +1 x78 +1 x82 +1 x86
  +1 x95 +1 x101 +1 x103 +1 x107 +1 x111 +1 x114 +1 x122 +1 x127 +1 x131 +1 x134 +1 x135 +1 x136 +1 x140
  +1 x148 +1 x153 +1 x154 +1 x174 +1 x178 +1 x185 +1 x191 >= +1
 c45: +1 x2 +1 x8 +1 x16 +1 x23 +1 x25 +1 x32 +1 x41 +1 x44 +1 x48 +1 x49 +1 x53 +1 x65 +1 x66 +1 x71
  +1 x74 +1 x76 +1 x80 +1 x84 +1 x90 +1 x96 +1 x99 +1 x100 +1 x102 +1 x107 +1 x123 +1 x129 +1 x130 +1 x133
  +1 x134 +1 x138 +1 x151 +1 x155 +1 x156 +1 x158 +1 x168 +1 x172 +1 x176 +1 x184 +1 x186 >= +1
 c46: +1 x0 +1 x6 +1 x12 +1 x14 +1 x17 +1 x18 +1 x22 +1 x26 +1 x34 +1 x40 +1 x44 +1 x45 +1 x46 +1 x57
  +1 x58 +1 x67 +1 x69 +1 x70 +1 x73 +1 x79 +1 x81 +1 x89 +1 x104 +1 x122 +1 x126 +1 x140 +1 x148 +1 x159
  +1 x165 +1 x177 +1 x178 +1 x180 +1 x181 +1 x182 +1 x184 +1 x190 +1 x192 +1 x197 >= +1
 c47: +1 x2 +1 x7 +1 x15 +1 x16 +1 x19 +1 x20 +1 x24 +1 x25 +1 x39 +1 x45 +1 x50 +1 x52 +1 x53 +1 x54
  +1 x63 +1 x75 +1 x77 +1 x78 +1 x82 +1 x84 +1 x86 +1 x91 +1 x93 +1 x95 +1 x103 +1 x107 +1 x121 +1 x129
  +1 x132 +1 x135 +1 x139 +1 x144 +1 x151 +1 x152 +1 x153 +1 x156 +1 x163 +1 x179 +1 x182 +1 x183 +1 x187
  +1 x193 >= +1
 c48: +1 x4 +1 x6 +1 x9 +1 x19 +1 x42 +1 x43 +1 x44 +1 x49 +1 x50 +1 x52 +1 x67 +1 x74 +1 x76 +1 x77 +1 x83
  +1 x84 +1 x90 +1 x95 +1 x101 +1 x114 +1 x116 +1 x119 +1 x123 +1 x127 +1 x137 +1 x143 +1 x144 +1 x146
  +1 x147 +1 x149 +1 x155 +1 x169 +1 x170 +1 x183 +1 x198 >= +1
 c49: +1 x1 +1 x6 +1 x7 +1 x11 +1 x13 +1 x14 +1 x15 +1 x19 +1 x20 +1 x32 +1 x39 +1 x43 +1 x45 +1 x47 +1 x49
  +1 x55 +1 x58 +1 x59 +1 x62 +1 x67 +1 x69 +1 x70 +1 x75 +1 x86 +1 x91 +1 x92 +1 x93 +1 x96 +1 x105 +1 x113
  +1 x126 +1 x133 +1 x134 +1 x135 +1 x136 +1 x140 +1 x145 +1 x157 +1 x158 +1 x164 +1 x166 +1 x170 +1 x171
  +1 x174 +1 x198 >= +1
 c50: +1 x3 +1 x10 +1 x12 +1 x14 +1 x25 +1 x32 +1 x37 +1 x43 +1 x45 +1 x46 +1 x47 +1 x56 +1 x68 +1 x71
  +1 x75 +1 x83 +1 x90 +1 x93 +1 x108 +1 x121 +1 x124 +1 x126 +1 x127 +1 x135 +1 x136 +1 x137 +1 x141
  +1 x144 +1 x149 +1 x153 +1 x159 +1 x162 +1 x164 +1 x174 +1 x176 +1 x184 +1 x187 +1 x197 >= +1
 c51: +1 x2 +1 x12 +1 x15 +1 x24 +1 x26 +1 x29 +1 x33 +1 x35 +1 x42 +1 x46 +1 x49 +1 x50 +1 x53 +1 x57
  +1 x62 +1 x91 +1 x97 +1 x99 +1 x104 +1 x109 +1 x111 +1 x114 +1 x118 +1 x122 +1 x129 +1 x132 +1 x137
  +1 x138 +1 x141 +1 x147 +1 x148 +1 x155 +1 x163 +1 x165 +1 x173 +1 x180 +1 x185 +1 x188 +1 x199 >= +1
 c52: +1 x2 +1 x7 +1 x17 +1 x23 +1 x26 +1 x28 +1 x29 +1 x35 +1 x40 +1 x42 +1 x64 +1 x78 +1 x84 +1 x102
  +1 x109 +1 x110 +1 x125 +1 x140 +1 x144 +1 x150 +1 x156 +1 x157 +1 x164 +1 x165 +1 x169 +1 x173 +1 x184
  +1 x187 +1 x191 +1 x192 +1 x195 >= +1
 c53: +1 x4 +1 x6 +1 x10 +1 x19 +1 x20 +1 x28 +1 x42 +1 x43 +1 x49 +1 x51 +1 x55 +1 x57 +1 x65 +1 x71
  +1 x73 +1 x75 +1 x83 +1 x89 +1 x91 +1 x97 +1 x105 +1 x115 +1 x127 +1 x136 +1 x139 +1 x148 +1 x156 +1 x157
  +1 x159 +1 x185 +1 x186 +1 x191 +1 x192 +1 x194 >= +1
 c54: +1 x3 +1 x4 +1 x21 +1 x23 +1 x29 +1 x60 +1 x69 +1 x77 +1 x81 +1 x87 +1 x94 +1 x96 +1 x97 +1 x100
  +1 x114 +1 x118 +1 x120 +1 x127 +1 x143 +1 x157 +1 x161 +1 x169 +1 x173 +1 x175 +1 x180 +1 x181 +1 x182
  +1 x187 +1 x189 +1 x190 +1 x196 >= +1
 c55: +1 x3 +1 x6 +1 x9 +1 x10 +1 x11 +1 x14 +1 x32 +1 x40 +1 x46 +1 x50 +1 x53 +1 x54 +1 x59 +1 x63 +1 x75
  +1 x79 +1 x96 +1 x100 +1 x103 +1 x104 +1 x106 +1 x111 +1 x112 +1 x115 +1 x130 +1 x131 +1 x132 +1 x135
  +1 x136 +1 x141 +1 x144 +1 x146 +1 x150 +1 x164 +1 x166 +1 x167 +1 x174 +1 x177 +1 x189 +1 x192 +1 x194
  +1 x198 >= +1
 c56: +1 x4 +1 x20 +1 x33 +1 x36 +1 x45 +1 x49 +1 x61 +1 x68 +1 x73 +1 x74 +1 x81 +1 x84 +1 x85 +1 x86
  +1 x90 +1 x96 +1 x101 +1 x108 +1 x116 +1 x120 +1 x127 +1 x134 +1 x139 +1 x141 +1 x145 +1 x148 +1 x154
  +1 x159 +1 x161 +1 x163 +1 x164 +1 x175 +1 x178 +1 x179 +1 x193 +1 x197 >= +1
 c57: +1 x4 +1 x7 +1 x9 +1 x10 +1 x11 +1 x23 +1 x24 +1 x32 +1 x40 +1 x46 +1 x49 +1 x52 +1 x53 +1 x54 +1 x56
  +1 x57 +1 x61 +1 x64 +1 x65 +1 x70 +1 x71 +1 x72 +1 x74 +1 x76 +1 x80 +1 x81 +1 x82 +1 x84 +1 x103 +1 x110
  +1 x115 +1 x117 +1 x126 +1 x139 +1 x145 +1 x159 +1 x162 +1 x166 +1 x173 +1 x174 +1 x179 +1 x182 >= +1
 c58: +1 x2 +1 x5 +1 x6 +1 x9 +1 x11 +1 x18 +1 x20 +1 x21 +1 x23 +1 x24 +1 x26 +1 x36 +1 x38 +1 x62 +1 x78
  +1 x79 +1 x85 +1 x96 +1 x102 +1 x108 +1 x116 +1 x119 +1 x122 +1 x147 +1 x150 +1 x151 +1 x156 +1 x160
  +1 x169 +1 x170 +1 x171 +1 x173 +1 x175 +1 x178 +1 x183 +1 x185 >= +1
 c59: +1 x3 +1 x6 +1 x9 +1 x10 +1 x15 +1 x22 +1 x23 +1 x26 +1 x30 +1 x31 +1 x32 +1 x41 +1 x44 +1 x45 +1 x57
  +1 x61 +1 x75 +1 x78 +1 x82 +1 x86 +1 x89 +1 x94 +1 x100 +1 x105 +1 x106 +1 x108 +1 x111 +1 x122 +1 x125
  +1 x136 +1 x139 +1 x145 +1 x147 +1 x156 +1 x158 +1 x159 +1 x163 +1 x169 +1 x179 +1 x181 +1 x189 +1 x190
  +1 x192 +1 x194 +1 x196 >= +1
 c60: +1 x4 +1 x6 +1 x10 +1 x27 +1 x42 +1 x43 +1 x46 +1 x49 +1 x54 +1 x63 +1 x68 +1 x72 +1 x82 +1 x87
  +1 x91 +1 x94 +1 x103 +1 x104 +1 x112 +1 x115 +1 x117 +1 x118 +1 x127 +1 x129 +1 x130 +1 x131 +1 x134
  +1 x136 +1 x137 +1 x142 +1 x143 +1 x154 +1 x159 +1 x160 +1 x163 +1 x173 +1 x175 +1 x176 +1 x177 +1 x178
  +1 x191 +1 x192 +1 x195 +1 x199 >= +1
 c61: +1 x0 +1 x7 +1 x15 +1 x19 +1 x20 +1 x24 +1 x33 +1 x35 +1 x39 +1 x42 +1 x47 +1 x49 +1 x50 +1 x52
  +1 x70 +1 x83 +1 x84 +1 x85 +1 x86 +1 x93 +1 x97 +1 x98 +1 x100 +1 x114 +1 x144 +1 x158 +1 x159 +1 x168
  +1 x170 +1 x176 +1 x178 +1 x183 +1 x190 +1 x196 >= +1
 c62: +1 x1 +1 x6 +1 x9 +1 x17 +1 x21 +1 x24 +1 x25 +1 x34 +1 x45 +1 x53 +1 x55 +1 x57 +1 x63 +1 x65 +1 x71
  +1 x73 +1 x74 +1 x75 +1 x76 +1 x81 +1 x90 +1 x99 +1 x101 +1 x103 +1 x109 +1 x111 +1 x112 +1 x121 +1 x123
  +1 x128 +1 x130 +1 x132 +1 x146 +1 x150 +1 x165 +1 x166 +1 x168 +1 x179 +1 x184 +1 x185 +1 x187 +1 x189
  +1 x192 +1 x199 >= +1
 c63: +1 x3 +1 x6 +1 x7 +1 x13 +1 x21 +1 x25 +1 x30 +1 x37 +1 x40 +1 x42 +1 x44 +1 x49 +1 x50 +1 x54 +1 x61
  +1 x64 +1 x68 +1 x80 +1 x92 +1 x94 +1 x107 +1 x110 +1 x116 +1 x119 +1 x126 +1 x133 +1 x140 +1 x147 +1 x150
  +1 x151 +1 x163 +1 x164 +1 x165 +1 x189 +1 x195 +1 x196 >= +1
 c64: +1 x0 +1 x5 +1 x14 +1 x15 +1 x34 +1 x44 +1 x49 +1 x50 +1 x55 +1 x76 +1 x82 +1 x88 +1 x93 +1 x94
  +1 x96 +1 x99 +1 x100 +1 x111 +1 x113 +1 x116 +1 x123 +1 x130 +1 x149 +1 x153 +1 x163 +1 x164 +1 x168
  +1 x173 +1 x176 +1 x183 +1 x186 +1 x191 +1 x196 +1 x197 >= +1
 c65: +1 x0 +1 x25 +1 x26 +1 x28 +1 x34 +1 x37 +1 x40 +1 x46 +1 x49 +1 x50 +1 x62 +1 x72 +1 x82 +1 x85
  +1 x94 +1 x95 +1 x96 +1 x101 +1 x103 +1 x104 +1 x108 +1 x109 +1 x114 +1 x120 +1 x125 +1 x130 +1 x133
  +1 x137 +1 x175 +1 x177 +1 x180 +1 x186 +1 x189 +1 x194 +1 x198 >= +1
 c66: +1 x4 +1 x5 +1 x19 +1 x25 +1 x29 +1 x32 +1 x33 +1 x40 +1 x41 +1 x48 +1 x51 +1 x57 +1 x59 +1 x71
  +1 x74 +1 x81 +1 x84 +1 x109 +1 x116 +1 x121 +1 x132 +1 x140 +1 x143 +1 x146 +1 x149 +1 x151 +1 x153
  +1 x165 +1 x167 +1 x168 +1 x169 +1 x170 +1 x171 +1 x183 +1 x190 +1 x196 >= +1
 c67: +1 x2 +1 x4 +1 x7 +1 x8 +1 x12 +1 x14 +1 x22 +1 x27 +1 x29 +1 x32 +1 x38 +1 x49 +1 x51 +1 x56 +1 x69
  +1 x71 +1 x78 +1 x92 +1 x96 +1 x102 +1 x104 +1 x111 +1 x122 +1 x131 +1 x137 +1 x146 +1 x152 +1 x157
  +1 x163 +1 x168 +1 x180 +1 x182 +1 x184 +1 x186 +1 x187 +1 x191 +1 x193 +1 x196 +1 x197 >= +1
 c68: +1 x2 +1 x12 +1 x18 +1 x20 +1 x24 +1 x29 +1 x31 +1 x35 +1 x36 +1 x37 +1 x42 +1 x45 +1 x46 +1 x49
  +1 x51 +1 x54 +1 x62 +1 x67 +1 x68 +1 x74 +1 x76 +1 x79 +1 x80 +1 x82 +1 x86 +1 x90 +1 x94 +1 x103 +1 x108
  +1 x111 +1 x125 +1 x145 +1 x146 +1 x164 +1 x167 +1 x168 +1 x170 +1 x178 +1 x181 +1 x183 +1 x184 +1 x185
  +1 x193 +1 x194 +1 x199 >= +1
 c69: +1 x4 +1 x5 +1 x6 +1 x14 +1 x15 +1 x18 +1 x22 +1 x26 +1 x27 +1 x32 +1 x38 +1 x42 +1 x46 +1 x48 +1 x55
  +1 x57 +1 x67 +1 x68 +1 x69 +1 x77 +1 x82 +1 x83 +1 x98 +1 x104 +1 x106 +1 x107 +1 x110 +1 x117 +1 x119
  +1 x120 +1 x126 +1 x129 +1 x135 +1 x137 +1 x138 +1 x147 +1 x151 +1 x152 +1 x153 +1 x154 +1 x155 +1 x163
  +1 x166 +1 x168 +1 x169 +1 x173 +1 x176 +1 x182 +1 x185 +1 x189 +1 x194 +1 x197 +1 x199 >= +1
 c70: +1 x0 +1 x4 +1 x8 +1 x16 +1 x24 +1 x31 +1 x34 +1 x35 +1 x36 +1 x37 +1 x44 +1 x45 +1 x51 +1 x52 +1 x54
  +1 x56 +1 x64 +1 x66 +1 x84 +1 x87 +1 x89 +1 x98 +1 x101 +1 x107 +1 x112 +1 x114 +1 x118 +1 x122 +1 x129
  +1 x130 +1 x133 +1 x146 +1 x148 +1 x165 +1 x174 +1 x180 +1 x183 +1 x188 >= +1
 c71: +1 x1 +1 x4 +1 x8 +1 x9 +1 x10 +1 x14 +1 x22 +1 x28 +1 x29 +1 x31 +1 x34 +1 x38 +1 x42 +1 x50 +1 x57
  +1 x64 +1 x75 +1 x84 +1 x86 +1 x104 +1 x112 +1 x119 +1 x120 +1 x121 +1 x122 +1 x124 +1 x134 +1 x142
  +1 x143 +1 x145 +1 x148 +1 x157 +1 x160 +1 x172 +1 x187 +1 x191 >= +1
 c72: +1 x2 +1 x5 +1 x6 +1 x9 +1 x12 +1 x14 +1 x15 +1 x17 +1 x22 +1 x24 +1 x30 +1 x41 +1 x42 +1 x49 +1 x66
  +1 x71 +1 x72 +1 x74 +1 x80 +1 x83 +1 x86 +1 x88 +1 x96 +1 x105 +1 x110 +1 x111 +1 x112 +1 x113 +1 x146
  +1 x151 +1 x155 +1 x157 +1 x160 +1 x161 +1 x167 +1 x187 +1 x192 >= +1
 c73: +1 x4 +1 x15 +1 x22 +1 x24 +1 x26 +1 x31 +1 x32 +1 x37 +1 x41 +1 x60 +1 x69 +1 x71 +1 x72 +1 x73
  +1 x78 +1 x89 +1 x93 +1 x96 +1 x97 +1 x104 +1 x107 +1 x113 +1 x121 +1 x123 +1 x128 +1 x135 +1 x136 +1 x142
  +1 x145 +1 x147 +1 x149 +1 x156 +1 x161 +1 x176 +1 x177 +1 x179 +1 x180 +1 x185 +1 x186 +1 x187 +1 x189
  +1 x191 +1 x194 >= +1
 c74: +1 x3 +1 x13 +1 x14 +1 x16 +1 x19 +1 x22 +1 x26 +1 x27 +1 x35 +1 x54 +1 x65 +1 x68 +1 x70 +1 x76
  +1 x95 +1 x100 +1 x116 +1 x125 +1 x131 +1 x135 +1 x140 +1 x142 +1 x144 +1 x155 +1 x158 +1 x166 +1 x185
  +1 x187 +1 x193 >= +1
 c75: +1 x1 +1 x9 +1 x11 +1 x12 +1 x13 +1 x20 +1 x24 +1 x28 +1 x32 +1 x35 +1 x41 +1 x45 +1 x49 +1 x55
  +1 x66 +1 x71 +1 x72 +1 x80 +1 x87 +1 x104 +1 x112 +1 x113 +1 x115 +1 x128 +1 x130 +1 x131 +1 x141 +1 x149
  +1 x152 +1 x154 +1 x155 +1 x162 +1 x179 +1 x193 +1 x195 +1 x198 >= +1
 c76: +1 x0 +1 x10 +1 x15 +1 x29 +1 x33 +1 x35 +1 x38 +1 x39 +1 x44 +1 x45 +1 x52 +1 x58 +1 x59 +1 x70
  +1 x71 +1 x78 +1 x87 +1 x88 +1 x92 +1 x100 +1 x106 +1 x113 +1 x114 +1 x118 +1 x120 +1 x122 +1 x124 +1 x125
  +1 x129 +1 x138 +1 x142 +1 x148 +1 x151 +1 x153 +1 x158 +1 x159 +1 x162 +1 x164 +1 x172 +1 x178 +1 x179
  +1 x189 +1 x194 +1 x199 >= +1
 c77: +1 x2 +1 x8 +1 x12 +1 x14 +1 x17 +1 x18 +1 x25 +1 x27 +1 x31 +1 x40 +1 x45 +1 x46 +1 x48 +1 x70
  +1 x71 +1 x73 +1 x78 +1 x82 +1 x86 +1 x101 +1 x106 +1 x112 +1 x117 +1 x118 +1 x122 +1 x139 +1 x142 +1 x145
  +1 x154 +1 x156 +1 x157 +1 x158 +1 x162 +1 x169 +1 x170 +1 x172 +1 x183 +1 x188 +1 x189 +1 x191 +1 x195
  +1 x197 >= +1
 c78: +1 x0 +1 x7 +1 x14 +1 x16 +1 x18 +1 x22 +1 x33 +1 x34 +1 x35 +1 x39 +1 x44 +1 x49 +1 x51 +1 x55
  +1 x63 +1 x67 +1 x79 +1 x82 +1 x92 +1 x99 +1 x100 +1 x105 +1 x113 +1 x124 +1 x130 +1 x136 +1 x144 +1 x149
  +1 x164 +1 x174 +1 x179 +1 x183 +1 x194 +1 x198 >= +1
 c79: +1 x4 +1 x5 +1 x7 +1 x10 +1 x12 +1 x16 +1 x17 +1 x26 +1 x27 +1 x40 +1 x45 +1 x65 +1 x72 +1 x73 +1 x75
  +1 x79 +1 x93 +1 x98 +1 x99 +1 x106 +1 x110 +1 x123 +1 x124 +1 x130 +1 x131 +1 x135 +1 x138 +1 x145
  +1 x147 +1 x148 +1 x151 +1 x156 +1 x163 +1 x164 +1 x168 +1 x172 +1 x174 +1 x175 +1 x182 +1 x186 +1 x188
  +1 x191 +1 x193 +1 x199 >= +1
 c80: +1 x1 +1 x4 +1 x5 +1 x7 +1 x8 +1 x9 +1 x10 +1 x15 +1 x18 +1 x23 +1 x24 +1 x30 +1 x32 +1 x33 +1 x40
  +1 x47 +1 x49 +1 x60 +1 x71 +1 x79 +1 x81 +1 x82 +1 x86 +1 x87 +1 x92 +1 x99 +1 x106 +1 x117 +1 x133
  +1 x143 +1 x148 +1 x168 +1 x169 +1 x172 +1 x179 +1 x181 +1 x183 +1 x196 +1 x197 +1 x198 >= +1
 c81: +1 x3 +1 x6 +1 x30 +1 x42 +1 x44 +1 x45 +1 x52 +1 x59 +1 x60 +1 x63 +1 x74 +1 x78 +1 x82 +1 x88
  +1 x90 +1 x91 +1 x94 +1 x99 +1 x102 +1 x111 +1 x112 +1 x116 +1 x117 +1 x127 +1 x133 +1 x142 +1 x143
  +1 x146 +1 x149 +1 x158 +1 x172 +1 x174 +1 x182 +1 x184 +1 x187 +1 x188 +1 x197 >= +1
 c82: +1 x0 +1 x6 +1 x23 +1 x25 +1 x27 +1 x30 +1 x42 +1 x50 +1 x51 +1 x59 +1 x60 +1 x64 +1 x65 +1 x67
  +1 x68 +1 x74 +1 x77 +1 x85 +1 x88 +1 x90 +1 x93 +1 x101 +1 x107 +1 x109 +1 x129 +1 x135 +1 x141 +1 x143
  +1 x149 +1 x154 +1 x156 +1 x167 +1 x168 +1 x172 +1 x176 +1 x177 >= +1
 c83: +1 x4 +1 x11 +1 x12 +1 x30 +1 x32 +1 x38 +1 x43 +1 x45 +1 x48 +1 x52 +1 x54 +1 x57 +1 x75 +1 x76
  +1 x81 +1 x88 +1 x89 +1 x92 +1 x96 +1 x106 +1 x108 +1 x126 +1 x127 +1 x133 +1 x143 +1 x144 +1 x145 +1 x148
  +1 x150 +1 x156 +1 x174 +1 x190 +1 x192 +1 x197 >= +1
 c84: +1 x3 +1 x5 +1 x29 +1 x37 +1 x39 +1 x46 +1 x65 +1 x75 +1 x77 +1 x82 +1 x85 +1 x90 +1 x92 +1 x98
  +1 x113 +1 x118 +1 x122 +1 x125 +1 x146 +1 x148 +1 x151 +1 x154 +1 x157 +1 x161 +1 x170 +1 x179 +1 x180
  +1 x183 +1 x185 +1 x191 +1 x195 +1 x196 +1 x199 >= +1
 c85: +1 x2 +1 x5 +1 x6 +1 x14 +1 x19 +1 x28 +1 x30 +1 x35 +1 x45 +1 x57 +1 x63 +1 x65 +1 x69 +1 x76 +1 x79
  +1 x81 +1 x83 +1 x86 +1 x87 +1 x89 +1 x92 +1 x96 +1 x101 +1 x106 +1 x115 +1 x124 +1 x125 +1 x129 +1 x131
  +1 x141 +1 x146 +1 x148 +1 x151 +1 x153 +1 x154 +1 x162 +1 x182 +1 x188 +1 x194 +1 x198 >= +1
 c86: +1 x3 +1 x11 +1 x16 +1 x19 +1 x22 +1 x38 +1 x39 +1 x41 +1 x44 +1 x47 +1 x54 +1 x61 +1 x65 +1 x67
  +1 x77 +1 x79 +1 x81 +1 x82 +1 x86 +1 x87 +1 x91 +1 x96 +1 x102 +1 x108 +1 x122 +1 x130 +1 x131 +1 x140
  +1 x141 +1 x149 +1 x159 +1 x162 +1 x164 +1 x175 +1 x177 +1 x178 +1 x186 +1 x193 >= +1
 c87: +1 x0 +1 x4 +1 x7 +1 x8 +1 x10 +1 x18 +1 x22 +1 x25 +1 x29 +1 x30 +1 x39 +1 x41 +1 x49 +1 x63 +1 x64
  +1 x67 +1 x68 +1 x69 +1 x71 +1 x75 +1 x76 +1 x90 +1 x105 +1 x106 +1 x110 +1 x112 +1 x116 +1 x120 +1 x121
  +1 x126 +1 x128 +1 x129 +1 x132 +1 x134 +1 x138 +1 x140 +1 x142 +1 x144 +1 x148 +1 x150 +1 x169 +1 x177
  +1 x179 +1 x180 +1 x185 +1 x186 +1 x188 +1 x196 >= +1
 c88: +1 x3 +1 x7 +1 x16 +1 x18 +1 x29 +1 x33 +1 x36 +1 x41 +1 x43 +1 x50 +1 x51 +1 x65 +1 x66 +1 x84
  +1 x87 +1 x91 +1 x99 +1 x105 +1 x114 +1 x117 +1 x118 +1 x132 +1 x137 +1 x144 +1 x147 +1 x150 +1 x152
  +1 x157 +1 x160 +1 x165 +1 x167 +1 x169 +1 x176 +1 x178 +1 x186 +1 x187 +1 x192 +1 x193 +1 x197 >= +1
 c89: +1 x2 +1 x9 +1 x11 +1 x22 +1 x24 +1 x25 +1 x30 +1 x40 +1 x61 +1 x83 +1 x92 +1 x94 +1 x96 +1 x99
  +1 x100 +1 x104 +1 x118 +1 x125 +1 x126 +1 x138 +1 x139 +1 x142 +1 x153 +1 x157 +1 x165 +1 x171 +1 x174
  +1 x182 +1 x192 +1 x194 >= +1
 c90: +1 x2 +1 x5 +1 x7 +1 x11 +1 x12 +1 x13 +1 x14 +1 x21 +1 x23 +1 x30 +1 x48 +1 x58 +1 x62 +1 x66 +1 x67
  +1 x81 +1 x89 +1 x105 +1 x111 +1 x114 +1 x117 +1 x122 +1 x124 +1 x126 +1 x129 +1 x135 +1 x137 +1 x154
  +1 x157 +1 x158 +1 x163 +1 x175 +1 x180 +1 x192 >= +1
 c91: +1 x2 +1 x6 +1 x7 +1 x14 +1 x15 +1 x19 +1 x20 +1 x22 +1 x31 +1 x32 +1 x40 +1 x44 +1 x46 +1 x47 +1 x50
  +1 x51 +1 x56 +1 x66 +1 x68 +1 x69 +1 x77 +1 x81 +1 x85 +1 x87 +1 x88 +1 x98 +1 x102 +1 x110 +1 x113
  +1 x115 +1 x117 +1 x121 +1 x123 +1 x126 +1 x137 +1 x138 +1 x140 +1 x141 +1 x149 +1 x151 +1 x161 +1 x163
  +1 x182 +1 x190 +1 x195 +1 x197 >= +1
 c92: +1 x3 +1 x5 +1 x6 +1 x7 +1 x13 +1 x17 +1 x25 +1 x28 +1 x36 +1 x39 +1 x40 +1 x41 +1 x43 +1 x48 +1 x60
  +1 x61 +1 x62 +1 x69 +1 x79 +1 x95 +1 x100 +1 x101 +1 x103 +1 x115 +1 x121 +1 x128 +1 x131 +1 x132 +1 x134
  +1 x136 +1 x137 +1 x140 +1 x144 +1 x146 +1 x148 +1 x149 +1 x150 +1 x157 +1 x160 +1 x163 +1 x179 +1 x180
  +1 x188 +1 x193 +1 x195 +1 x196 +1 x198 >= +1
 c93: +1 x1 +1 x6 +1 x12 +1 x16 +1 x19 +1 x24 +1 x25 +1 x26 +1 x42 +1 x46 +1 x52 +1 x54 +1 x62 +1 x65
  +1 x81 +1 x91 +1 x100 +1 x101 +1 x102 +1 x110 +1 x112 +1 x119 +1 x120 +1 x121 +1 x123 +1 x129 +1 x131
  +1 x141 +1 x151 +1 x161 +1 x162 +1 x164 +1 x172 +1 x180 +1 x182 +1 x183 +1 x184 +1 x185 +1 x187 +1 x193
  +1 x196 +1 x199 >= +1
 c94: +1 x1 +1 x9 +1 x13 +1 x14 +1 x18 +1 x26 +1 x30 +1 x34 +1 x35 +1 x37 +1 x40 +1 x46 +1 x49 +1 x55
  +1 x62 +1 x74 +1 x75 +1 x78 +1 x84 +1 x95 +1 x100 +1 x102 +1 x105 +1 x108 +1 x109 +1 x111 +1 x118 +1 x119
  +1 x123 +1 x124 +1 x129 +1 x132 +1 x133 +1 x136 +1 x144 +1 x153 +1 x159 +1 x164 +1 x165 +1 x180 +1 x181
  +1 x183 >= +1
 c95: +1 x1 +1 x17 +1 x18 +1 x23 +1 x24 +1 x27 +1 x31 +1 x32 +1 x39 +1 x41 +1 x43 +1 x46 +1 x57 +1 x58
  +1 x59 +1 x61 +1 x63 +1 x64 +1 x67 +1 x73 +1 x75 +1 x78 +1 x80 +1 x82 +1 x89 +1 x90 +1 x101 +1 x104
  +1 x115 +1 x122 +1 x131 +1 x132 +1 x139 +1 x141 +1 x142 +1 x149 +1 x153 +1 x155 +1 x158 +1 x159 +1 x160
  +1 x163 +1 x164 +1 x174 +1 x175 +1 x184 +1 x186 >= +1
 c96: +1 x1 +1 x17 +1 x18 +1 x19 +1 x20 +1 x22 +1 x23 +1 x24 +1 x39 +1 x43 +1 x47 +1 x55 +1 x64 +1 x69
  +1 x71 +1 x77 +1 x83 +1 x84 +1 x86 +1 x87 +1 x90 +1 x91 +1 x101 +1 x110 +1 x115 +1 x123 +1 x125 +1 x142
  +1 x146 +1 x148 +1 x149 +1 x152 +1 x159 +1 x161 +1 x163 +1 x164 +1 x169 +1 x176 +1 x188 +1 x195 +1 x198
  >= +1
 c97: +1 x0 +1 x5 +1 x17 +1 x18 +1 x24 +1 x36 +1 x41 +1 x44 +1 x51 +1 x52 +1 x76 +1 x78 +1 x79 +1 x85
  +1 x86 +1 x94 +1 x97 +1 x101 +1 x104 +1 x118 +1 x120 +1 x122 +1 x124 +1 x149 +1 x157 +1 x168 +1 x172
  +1 x173 +1 x179 +1 x180 +1 x181 +1 x183 +1 x189 +1 x190 +1 x194 +1 x195 +1 x196 >= +1
 c98: +1 x3 +1 x7 +1 x13 +1 x15 +1 x16 +1 x19 +1 x21 +1 x23 +1 x24 +1 x26 +1 x34 +1 x41 +1 x47 +1 x54
  +1 x61 +1 x63 +1 x67 +1 x70 +1 x74 +1 x80 +1 x83 +1 x96 +1 x98 +1 x100 +1 x116 +1 x122 +1 x134 +1 x139
  +1 x140 +1 x141 +1 x145 +1 x146 +1 x151 +1 x154 +1 x161 +1 x162 +1 x168 +1 x169 +1 x170 +1 x174 +1 x175
  +1 x182 +1 x186 +1 x189 +1 x190 +1 x192 +1 x193 >= +1
 c99: +1 x4 +1 x6 +1 x8 +1 x9 +1 x19 +1 x22 +1 x23 +1 x24 +1 x27 +1 x28 +1 x30 +1 x33 +1 x35 +1 x40 +1 x41
  +1 x47 +1 x50 +1 x55 +1 x61 +1 x62 +1 x72 +1 x76 +1 x81 +1 x83 +1 x89 +1 x92 +1 x97 +1 x99 +1 x104 +1 x121
  +1 x128 +1 x133 +1 x136 +1 x138 +1 x139 +1 x140 +1 x141 +1 x147 +1 x151 +1 x153 +1 x162 +1 x165 +1 x170
  +1 x174 +1 x177 +1 x192 +1 x194 +1 x195 +1 x196 +1 x197 >= +1
Bounds
 0 <= x0 <= 1
 0 <= x1 <= 1
 0 <= x2 <= 1
 0 <= x3 <= 1
 0 <= x4 <= 1
 0 <= x5 <= 1
 0 <= x6 <= 1
 0 <= x7 <= 1
 0 <= x8 <= 1
 0 <= x9 <= 1
 0 <= x10 <= 1
 0 <= x11 <= 1
 0 <= x12 <= 1
 0 <= x13 <= 1
 0 <= x14 <= 1
 0 <= x15 <= 1
 0 <= x16 <= 1
 0 <= x17 <= 1
 0 <= x18 <= 1
 0 <= x19 <= 1
 0 <= x20 <= 1
 0 <= x21 <= 1
 0 <= x22 <= 1
 0 <= x23 <= 1
 0 <= x24 <= 1
 0 <= x25 <= 1
 0 <= x26 <= 1
 0 <= x27 <= 1
 0 <= x28 <= 1
 0 <= x29 <= 1
 0 <= x30 <= 1
 0 <= x31 <= 1
 0 <= x32 <= 1
 0 <= x33 <= 1
 0 <= x34 <= 1
 0 <= x35 <= 1
 0 <= x36 <= 1
 0 <= x37 <= 1
 0 <= x38 <= 1
 0 <= x39 <= 1
 0 <= x40 <= 1
 0 <= x41 <= 1
 0 <= x42 <= 1
 0 <= x43 <= 1
 0 <= x44 <= 1
 0 <= x45 <= 1
 0 <= x46 <= 1
 0 <= x47 <= 1
 0 <= x48 <= 1
 0 <= x49 <= 1
 0 <= x50 <= 1
 0 <= x51 <= 1
 0 <= x52 <= 1
 0 <= x53 <= 1
 0 <= x54 <= 1
 0 <= x55 <= 1
 0 <= x56 <= 1
 0 <= x57 <= 1
 0 <= x58 <= 1
 0 <= x59 <= 1
 0 <= x60 <= 1
 0 <= x61 <= 1
 0 <= x62 <= 1
 0 <= x63 <= 1
 0 <= x64 <= 1
 0 <= x65 <= 1
 0 <= x66 <= 1
 0 <= x67 <= 1
 0 <= x68 <= 1
 0 <= x69 <= 1
 0 <= x70 <= 1
 0 <= x71 <= 1
 0 <= x72 <= 1
 0 <= x73 <= 1
 0 <= x74 <= 1
 0 <= x75 <= 1
 0 <= x76 <= 1
 0 <= x77 <= 1
 0 <= x78 <= 1
 0 <= x79 <= 1
 0 <= x80 <= 1
 0 <= x81 <= 1
 0 <= x82 <= 1
 0 <= x83 <= 1
 0 <= x84 <= 1
 0 <= x85 <= 1
 0 <= x86 <= 1
 0 <= x87 <= 1
 0 <= x88 <= 1
 0 <= x89 <= 1
 0 <= x90 <= 1
 0 <= x91 <= 1
 0 <= x92 <= 1
 0 <= x93 <= 1
 0 <= x94 <= 1
 0 <= x95 <= 1
 0 <= x96 <= 1
 0 <= x97 <= 1
 0 <= x98 <= 1
 0 <= x99 <= 1
 0 <= x100 <= 1
 0 <= x101 <= 1
 0 <= x102 <= 1
 0 <= x103 <= 1
 0 <= x104 <= 1
 0 <= x105 <= 1
 0 <= x106 <= 1
 0 <= x107 <= 1
 0 <= x108 <= 1
 0 <= x109 <= 1
 0 <= x110 <= 1
 0 <= x111 <= 1
 0 <= x112 <= 1
 0 <= x113 <= 1
 0 <= x114 <= 1
 0 <= x115 <= 1
 0 <= x116 <= 1
 0 <= x117 <= 1
 0 <= x118 <= 1
 0 <= x119 <= 1
 0 <= x120 <= 1
 0 <= x121 <= 1
 0 <= x122 <= 1
 0 <= x123 <= 1
 0 <= x124 <= 1
 0 <= x125 <= 1
 0 <= x126 <= 1
 0 <= x127 <= 1
 0 <= x128 <= 1
 0 <= x129 <= 1
 0 <= x130 <= 1
 0 <= x131 <= 1
 0 <= x132 <= 1
 0 <= x133 <= 1
 0 <= x134 <= 1
 0 <= x135 <= 1
 0 <= x136 <= 1
 0 <= x137 <= 1
 0 <= x138 <= 1
 0 <= x139 <= 1
 0 <= x140 <= 1
 0 <= x141 <= 1
 0 <= x142 <= 1
 0 <= x143 <= 1
 0 <= x144 <= 1
 0 <= x145 <= 1
 0 <= x146 <= 1
 0 <= x147 <= 1
 0 <= x148 <= 1
 0 <= x149 <= 1
 0 <= x150 <= 1
 0 <= x151 <= 1
 0 <= x152 <= 1
 0 <= x153 <= 1
 0 <= x154 <= 1
 0 <= x155 <= 1
 0 <= x156 <= 1
 0 <= x157 <= 1
 0 <= x158 <= 1
 0 <= x159 <= 1
 0 <= x160 <= 1
 0 <= x161 <= 1
 0 <= x162 <= 1
 0 <= x163 <= 1
 0 <= x164 <= 1
 0 <= x165 <= 1
 0 <= x166 <= 1
 0 <= x167 <= 1
 0 <= x168 <= 1
 0 <= x169 <= 1
 0 <= x170 <= 1
 0 <= x171 <= 1
 0 <= x172 <= 1
 0 <= x173 <= 1
 0 <= x174 <= 1
 0 <= x175 <= 1
 0 <= x176 <= 1
 0 <= x177 <= 1
 0 <= x178 <= 1
 0 <= x179 <= 1
 0 <= x180 <= 1
 0 <= x181 <= 1
 0 <= x182 <= 1
 0 <= x183 <= 1
 0 <= x184 <= 1
 0 <= x185 <= 1
 0 <= x186 <= 1
 0 <= x187 <= 1
 0 <= x188 <= 1
 0 <= x189 <= 1
 0 <= x190 <= 1
 0 <= x191 <= 1
 0 <= x192 <= 1
 0 <= x193 <= 1
 0 <= x194 <= 1
 0 <= x195 <= 1
 0 <= x196 <= 1
 0 <= x197 <= 1
 0 <= x198 <= 1
 0 <= x199 <= 1
Binaries
 x0 x1 x2 x3 x4 x5 x6 x7 x8 x9 x10 x11 x12 x13 x14 x15 x16 x17 x18 x19 x20 x21 x22 x23 x24 x25 x26 x27
 x28 x29 x30 x31 x32 x33 x34 x35 x36 x37 x38 x39 x40 x41 x42 x43 x44 x45 x46 x47 x48 x49 x50 x51 x52 x53
 x54 x55 x56 x57 x58 x59 x60 x61 x62 x63 x64 x65 x66 x67 x68 x69 x70 x71 x72 x73 x74 x75 x76 x77 x78 x79
 x80 x81 x82 x83 x84 x85 x86 x87 x88 x89 x90 x91 x92 x93 x94 x95 x96 x97 x98 x99 x100 x101 x102 x103 x104
 x105 x106 x107 x108 x109 x110 x111 x112 x113 x114 x115 x116 x117 x118 x119 x120 x121 x122 x123 x124 x125
 x126 x127 x128 x129 x130 x131 x132 x133 x134 x135 x136 x137 x138 x139 x140 x141 x142 x143 x144 x145 x146
 x147 x148 x149 x150 x151 x152 x153 x154 x155 x156 x157 x158 x159 x160 x161 x162 x163 x164 x165 x166 x167
 x168 x169 x170 x171 x172 x173 x174 x175 x176 x177 x178 x179 x180 x181 x182 x183 x184 x185 x186 x187 x188
 x189 x190 x191 x192 x193 x194 x195 x196 x197 x198 x199
End
